<number of tasks>
100

<cycle time>
1000

<order strength>
0.597


<task times>
1 127
2 83
3 120
4 318
5 207
6 27
7 177
8 142
9 169
10 330
11 147
12 39
13 258
14 113
15 105
16 83
17 197
18 47
19 128
20 192
21 86
22 130
23 151
24 97
25 161
26 127
27 168
28 73
29 190
30 76
31 33
32 123
33 41
34 207
35 175
36 110
37 195
38 264
39 25
40 238
41 179
42 92
43 21
44 212
45 29
46 141
47 219
48 31
49 168
50 148
51 118
52 131
53 208
54 260
55 269
56 81
57 63
58 79
59 101
60 150
61 64
62 64
63 104
64 32
65 57
66 162
67 152
68 220
69 204
70 233
71 202
72 219
73 207
74 121
75 74
76 96
77 87
78 137
79 22
80 46
81 82
82 136
83 100
84 134
85 73
86 217
87 98
88 200
89 71
90 244
91 50
92 177
93 21
94 110
95 155
96 90
97 162
98 219
99 140
100 190

<precedence relations>
1,7
2,8
2,9
2,10
2,11
2,12
3,11
3,12
4,10
4,11
5,42
5,46
6,12
7,14
8,13
9,16
10,15
10,17
10,18
10,19
10,20
11,17
11,18
11,19
11,20
12,17
12,18
12,19
12,20
13,22
14,23
15,24
16,26
17,21
17,27
17,28
17,29
18,25
18,27
18,28
18,29
19,27
19,28
19,29
20,27
20,28
20,29
21,30
22,31
23,34
24,32
25,33
26,34
27,34
27,35
27,36
28,34
28,35
28,36
29,34
29,35
29,36
30,39
31,40
32,37
33,38
34,39
34,40
34,41
34,42
35,39
35,40
35,41
35,42
36,39
36,40
36,41
36,42
37,43
38,44
39,44
39,45
40,46
40,76
41,44
41,45
41,46
42,44
43,47
44,48
44,49
45,53
45,67
45,75
46,59
46,81
47,52
48,50
48,51
48,53
49,53
49,54
50,55
51,57
52,58
53,56
53,60
54,59
55,61
56,63
57,62
58,66
59,64
59,65
59,66
59,67
59,69
60,68
60,79
61,70
62,71
63,74
64,73
65,72
65,74
65,75
65,86
66,74
66,95
67,93
68,76
68,86
68,88
69,74
69,84
69,86
69,100
70,78
71,79
72,77
73,79
74,80
75,80
75,88
76,80
76,81
77,82
78,83
79,84
79,85
79,86
79,94
80,85
81,84
81,100
82,87
83,88
84,89
84,90
84,98
85,89
85,97
85,99
86,90
86,97
86,98
87,92
88,91
88,93
88,94
88,95
90,93
90,99
91,96
92,97
94,99
94,100
95,98

<end>
